c sudoku3_unsat.txt3.cnf
p cnf 27 120
1 2 3 0
4 5 6 0
7 8 9 0
10 11 12 0
13 14 15 0
16 17 18 0
19 20 21 0
22 23 24 0
25 26 27 0
-1 -2 0
-1 -3 0
-2 -1 0
-2 -3 0
-3 -1 0
-3 -2 0
-4 -5 0
-4 -6 0
-5 -4 0
-5 -6 0
-6 -4 0
-6 -5 0
-7 -8 0
-7 -9 0
-8 -7 0
-8 -9 0
-9 -7 0
-9 -8 0
-10 -11 0
-10 -12 0
-11 -10 0
-11 -12 0
-12 -10 0
-12 -11 0
-13 -14 0
-13 -15 0
-14 -13 0
-14 -15 0
-15 -13 0
-15 -14 0
-16 -17 0
-16 -18 0
-17 -16 0
-17 -18 0
-18 -16 0
-18 -17 0
-19 -20 0
-19 -21 0
-20 -19 0
-20 -21 0
-21 -19 0
-21 -20 0
-22 -23 0
-22 -24 0
-23 -22 0
-23 -24 0
-24 -22 0
-24 -23 0
-25 -26 0
-25 -27 0
-26 -25 0
-26 -27 0
-27 -25 0
-27 -26 0
-1 -4 0
-1 -7 0
-4 -7 0
-2 -5 0
-2 -8 0
-5 -8 0
-3 -6 0
-3 -9 0
-6 -9 0
-10 -13 0
-10 -16 0
-13 -16 0
-11 -14 0
-11 -17 0
-14 -17 0
-12 -15 0
-12 -18 0
-15 -18 0
-19 -22 0
-19 -25 0
-22 -25 0
-20 -23 0
-20 -26 0
-23 -26 0
-21 -24 0
-21 -27 0
-24 -27 0
-1 -10 0
-1 -19 0
-10 -19 0
-2 -11 0
-2 -20 0
-11 -20 0
-3 -12 0
-3 -21 0
-12 -21 0
-4 -13 0
-4 -22 0
-13 -22 0
-5 -14 0
-5 -23 0
-14 -23 0
-6 -15 0
-6 -24 0
-15 -24 0
-7 -16 0
-7 -25 0
-16 -25 0
-8 -17 0
-8 -26 0
-17 -26 0
-9 -18 0
-9 -27 0
-18 -27 0
7 0
11 0
27 0
